50
9172

871 610
743 972
61 332
749 665
366 238
746 859
675 413
766 532
617 440
900 336
180 107
296 124
728 482
907 770
348 267
762 32
946 821
984 132
902 18
150 126
255 907
859 638
70 506
315 270
149 352
457 555
982 562
400 316
440 981
77 201
929 648
495 455
530 593
205 697
381 283
464 16
752 984
408 628
376 992
184 132
109 296
272 338
637 677
9 482
96 33
358 863
740 837
240 642
895 591
443 131
